instances/shortest_path/discrete_knapsack_uncertainty/nohadani_4_7.lp
\ Model nohadani_4_7
\ LP format - for model browsing. Use MPS format to capture full model detail.
\ Signature: 0x26b3cf7f3313a25f
Minimize
  42.20189569201838 y[0,1] + 61 y[0,2] + 61.66036003787198 y[0,3]
   + 42.20189569201838 y[1,0] + 19.02629759044045 y[1,2]
   + 60.20797289396148 y[1,3] + 61 y[2,0] + 19.02629759044045 y[2,1]
   + 61.66036003787198 y[3,0] + 60.20797289396148 y[3,1] + x[0,1] + x[0,2]
   + x[0,3] + x[1,0] + x[1,2] + x[1,3] + x[2,0] + x[2,1] + x[3,0] + x[3,1]
   + 4.220189569201838 r[0,1] + 6.1 r[0,2] + 6.166036003787198 r[0,3]
   + 4.220189569201838 r[1,0] + 1.902629759044045 r[1,2]
   + 6.020797289396148 r[1,3] + 6.1 r[2,0] + 1.902629759044045 r[2,1]
   + 6.166036003787198 r[3,0] + 6.020797289396148 r[3,1]
Subject To
 flow_cons_inner_nodes[0]: - y[0,1] - y[0,2] - y[0,3] + y[1,0] + y[2,0]
   + y[3,0] = 0
 flow_cons_inner_nodes[1]: y[0,1] - y[1,0] - y[1,2] - y[1,3] + y[2,1]
   + y[3,1] = 0
 flow_cons_source: - y[0,2] - y[1,2] + y[2,0] + y[2,1] = 1
 flow_cons_target: y[0,3] + y[1,3] - y[3,0] - y[3,1] = 1
 primal_lower: 5.026622517106112 x[0,1] + 6.687942635336368 x[0,2]
   + 3.643256223108353 x[0,3] + 8.409325788046974 x[1,0]
   + 7.663382766066938 x[1,2] + 1.982186337911 x[1,3]
   + 8.884054230409287 x[2,0] + 4.544523896996163 x[2,1]
   + 6.601186277632501 x[3,0] + 5.650428056426226 x[3,1] + 45 u[0,1]
   + 73 u[0,2] + 91 u[0,3] + 48 u[1,0] + 57 u[1,2] + 83 u[1,3] + 74 u[2,0]
   + 33 u[2,1] + 46 u[3,0] + 19 u[3,1] <= 91
 mccormick1[0,1]: - u[0,1] + r[0,1] <= 0
 mccormick1[0,2]: - u[0,2] + r[0,2] <= 0
 mccormick1[0,3]: - u[0,3] + r[0,3] <= 0
 mccormick1[1,0]: - u[1,0] + r[1,0] <= 0
 mccormick1[1,2]: - u[1,2] + r[1,2] <= 0
 mccormick1[1,3]: - u[1,3] + r[1,3] <= 0
 mccormick1[2,0]: - u[2,0] + r[2,0] <= 0
 mccormick1[2,1]: - u[2,1] + r[2,1] <= 0
 mccormick1[3,0]: - u[3,0] + r[3,0] <= 0
 mccormick1[3,1]: - u[3,1] + r[3,1] <= 0
 mccormick2[0,1]: - y[0,1] + r[0,1] <= 0
 mccormick2[0,2]: - y[0,2] + r[0,2] <= 0
 mccormick2[0,3]: - y[0,3] + r[0,3] <= 0
 mccormick2[1,0]: - y[1,0] + r[1,0] <= 0
 mccormick2[1,2]: - y[1,2] + r[1,2] <= 0
 mccormick2[1,3]: - y[1,3] + r[1,3] <= 0
 mccormick2[2,0]: - y[2,0] + r[2,0] <= 0
 mccormick2[2,1]: - y[2,1] + r[2,1] <= 0
 mccormick2[3,0]: - y[3,0] + r[3,0] <= 0
 mccormick2[3,1]: - y[3,1] + r[3,1] <= 0
 mccormick3[0,1]: - y[0,1] - u[0,1] + r[0,1] >= -1
 mccormick3[0,2]: - y[0,2] - u[0,2] + r[0,2] >= -1
 mccormick3[0,3]: - y[0,3] - u[0,3] + r[0,3] >= -1
 mccormick3[1,0]: - y[1,0] - u[1,0] + r[1,0] >= -1
 mccormick3[1,2]: - y[1,2] - u[1,2] + r[1,2] >= -1
 mccormick3[1,3]: - y[1,3] - u[1,3] + r[1,3] >= -1
 mccormick3[2,0]: - y[2,0] - u[2,0] + r[2,0] >= -1
 mccormick3[2,1]: - y[2,1] - u[2,1] + r[2,1] >= -1
 mccormick3[3,0]: - y[3,0] - u[3,0] + r[3,0] >= -1
 mccormick3[3,1]: - y[3,1] - u[3,1] + r[3,1] >= -1
Bounds
Binaries
 y[0,1] y[0,2] y[0,3] y[1,0] y[1,2] y[1,3] y[2,0] y[2,1] y[3,0] y[3,1]
 x[0,1] x[0,2] x[0,3] x[1,0] x[1,2] x[1,3] x[2,0] x[2,1] x[3,0] x[3,1]
 u[0,1] u[0,2] u[0,3] u[1,0] u[1,2] u[1,3] u[2,0] u[2,1] u[3,0] u[3,1]
 r[0,1] r[0,2] r[0,3] r[1,0] r[1,2] r[1,3] r[2,0] r[2,1] r[3,0] r[3,1]
End
