instances/shortest_path/discrete_knapsack_uncertainty/nohadani_4_7.kp
45372
91

[5.026622517106112 6.687942635336368 3.6432562231083527 8.409325788046974 7.663382766066938 1.9821863379109996 8.884054230409287 4.544523896996163 6.601186277632501 5.650428056426226]

[45 73 91 48 57 83 74 33 46 19]
